33D32945 STP File, STP Format Version 1.0

SECTION Comment
Name    "i080-142"
Creator "Cees Duin"
Remark  "Incidence graph"
END

SECTION Graph
Nodes 80
Edges 632
E 1 14 203
E 1 35 200
E 1 41 202
E 1 45 203
E 1 48 199
E 1 49 196
E 1 50 198
E 1 53 208
E 1 58 203
E 1 64 192
E 1 65 202
E 1 67 200
E 1 68 203
E 1 70 195
E 1 71 185
E 1 72 200
E 1 74 199
E 1 78 197
E 1 79 194
E 1 80 197
E 2 3 300
E 2 4 301
E 2 9 202
E 2 13 206
E 2 15 201
E 2 20 198
E 2 42 198
E 2 44 200
E 2 57 201
E 2 61 202
E 2 64 205
E 2 69 200
E 2 75 205
E 2 79 204
E 3 13 197
E 3 22 200
E 3 25 199
E 3 30 190
E 3 33 197
E 3 35 214
E 3 49 198
E 3 50 200
E 3 54 198
E 3 58 191
E 3 59 205
E 3 63 195
E 3 65 203
E 3 66 201
E 3 80 196
E 4 18 204
E 4 21 193
E 4 24 200
E 4 27 205
E 4 30 201
E 4 31 198
E 4 32 193
E 4 33 202
E 4 42 203
E 4 43 208
E 4 48 193
E 4 52 207
E 4 53 193
E 4 54 201
E 4 56 198
E 4 58 196
E 4 60 203
E 4 63 203
E 4 64 204
E 4 70 191
E 4 76 205
E 5 7 298
E 5 13 198
E 5 14 200
E 5 15 203
E 5 16 207
E 5 20 198
E 5 23 199
E 5 26 203
E 5 43 189
E 5 45 198
E 5 47 201
E 5 52 186
E 5 61 206
E 5 62 202
E 5 65 210
E 5 69 202
E 5 75 203
E 5 80 197
E 6 21 197
E 6 27 195
E 6 29 203
E 6 31 203
E 6 33 205
E 6 36 192
E 6 42 200
E 6 51 200
E 6 56 203
E 6 57 194
E 6 61 195
E 6 63 210
E 6 71 195
E 6 76 193
E 6 77 192
E 7 17 199
E 7 20 203
E 7 21 197
E 7 25 190
E 7 27 188
E 7 28 203
E 7 35 199
E 7 36 192
E 7 44 201
E 7 46 201
E 7 48 203
E 7 53 210
E 7 63 197
E 7 64 210
E 7 65 195
E 7 67 192
E 7 70 196
E 8 11 195
E 8 19 197
E 8 21 199
E 8 25 200
E 8 39 201
E 8 42 206
E 8 50 202
E 8 54 203
E 8 60 201
E 8 62 204
E 8 67 200
E 8 69 197
E 8 72 202
E 8 75 195
E 8 78 200
E 9 11 92
E 9 18 101
E 9 19 96
E 9 23 103
E 9 25 97
E 9 38 93
E 9 39 105
E 9 40 95
E 9 41 104
E 9 44 99
E 9 45 97
E 9 68 109
E 9 73 100
E 10 12 99
E 10 13 102
E 10 19 92
E 10 21 97
E 10 23 96
E 10 36 100
E 10 47 105
E 10 63 102
E 10 76 105
E 10 78 95
E 10 80 100
E 11 35 97
E 11 43 97
E 11 45 96
E 11 52 99
E 11 53 105
E 11 54 103
E 11 56 102
E 11 71 93
E 11 72 98
E 12 26 100
E 12 31 91
E 12 34 96
E 12 55 103
E 12 58 102
E 12 60 96
E 12 72 100
E 12 74 94
E 12 79 96
E 13 18 96
E 13 22 96
E 13 28 100
E 13 29 104
E 13 42 98
E 13 50 105
E 13 54 95
E 13 56 108
E 13 57 97
E 13 63 98
E 13 67 99
E 13 71 99
E 13 72 96
E 13 79 102
E 13 80 103
E 14 15 101
E 14 17 90
E 14 25 101
E 14 29 101
E 14 32 92
E 14 35 99
E 14 40 102
E 14 51 103
E 14 54 106
E 14 58 88
E 14 60 101
E 14 62 103
E 14 64 104
E 14 65 96
E 14 80 101
E 15 16 105
E 15 22 101
E 15 24 97
E 15 43 91
E 15 55 104
E 15 64 97
E 15 72 101
E 15 80 95
E 16 18 98
E 16 21 103
E 16 22 97
E 16 24 100
E 16 28 99
E 16 30 100
E 16 35 102
E 16 53 97
E 16 55 95
E 16 58 99
E 16 61 100
E 16 62 101
E 16 65 94
E 16 73 106
E 16 78 91
E 16 79 93
E 17 22 100
E 17 24 99
E 17 26 101
E 17 30 99
E 17 33 105
E 17 35 105
E 17 42 102
E 17 45 102
E 17 54 105
E 17 71 97
E 17 74 106
E 17 77 106
E 17 78 97
E 17 80 98
E 18 23 97
E 18 29 106
E 18 32 99
E 18 47 93
E 18 51 95
E 18 62 102
E 18 77 101
E 19 27 104
E 19 34 100
E 19 37 100
E 19 42 97
E 19 44 93
E 19 50 102
E 19 52 100
E 19 57 92
E 19 75 103
E 20 40 91
E 20 48 97
E 20 56 95
E 20 65 110
E 20 72 108
E 20 74 107
E 21 30 97
E 21 32 101
E 21 42 102
E 21 44 104
E 21 45 106
E 21 51 103
E 21 60 95
E 21 66 106
E 21 70 98
E 21 72 99
E 21 74 98
E 22 27 100
E 22 28 98
E 22 31 94
E 22 34 100
E 22 39 92
E 22 51 102
E 22 53 106
E 22 58 112
E 22 64 101
E 22 69 98
E 22 74 99
E 22 76 92
E 23 29 96
E 23 32 97
E 23 37 103
E 23 39 100
E 23 43 98
E 23 46 93
E 23 47 96
E 23 51 93
E 23 53 106
E 23 54 94
E 23 60 99
E 23 68 105
E 23 75 96
E 24 30 106
E 24 33 103
E 24 35 97
E 24 45 98
E 24 46 97
E 24 52 99
E 24 54 101
E 24 56 99
E 24 68 98
E 24 74 92
E 25 29 99
E 25 30 92
E 25 31 99
E 25 33 104
E 25 34 98
E 25 39 101
E 25 49 100
E 25 55 97
E 25 58 96
E 25 69 101
E 25 71 97
E 25 72 101
E 25 77 104
E 26 41 103
E 26 45 98
E 26 48 104
E 26 53 102
E 26 56 96
E 26 58 107
E 26 62 97
E 26 64 100
E 27 29 100
E 27 34 99
E 27 35 98
E 27 36 108
E 27 39 97
E 27 40 94
E 27 41 97
E 27 47 100
E 27 52 103
E 27 58 104
E 27 61 98
E 27 67 103
E 27 69 101
E 27 72 95
E 27 73 96
E 28 34 90
E 28 36 106
E 28 39 98
E 28 44 93
E 28 48 101
E 28 51 116
E 28 59 104
E 28 63 98
E 28 66 98
E 28 67 92
E 28 69 96
E 28 74 103
E 28 78 93
E 29 33 99
E 29 40 98
E 29 41 100
E 29 53 92
E 29 54 96
E 29 57 105
E 29 60 95
E 29 66 95
E 29 69 99
E 29 72 98
E 29 75 95
E 30 43 102
E 30 49 109
E 30 50 105
E 30 52 93
E 30 54 98
E 30 57 95
E 30 63 94
E 30 64 105
E 30 69 103
E 30 73 98
E 30 79 92
E 31 35 100
E 31 47 98
E 31 64 96
E 32 36 98
E 32 37 97
E 32 40 90
E 32 45 98
E 32 46 98
E 32 50 98
E 32 53 94
E 32 54 98
E 32 55 95
E 32 63 92
E 32 65 96
E 32 66 99
E 32 72 94
E 33 34 95
E 33 42 97
E 33 46 101
E 33 53 100
E 33 55 99
E 33 68 99
E 33 72 89
E 34 36 101
E 34 43 98
E 34 48 96
E 34 51 107
E 34 53 98
E 34 63 105
E 34 71 104
E 34 79 103
E 35 36 113
E 35 38 103
E 35 39 92
E 35 45 108
E 35 49 94
E 35 50 90
E 35 58 94
E 35 62 93
E 35 67 104
E 35 69 104
E 35 72 108
E 36 41 100
E 36 47 106
E 36 48 102
E 36 52 103
E 36 61 101
E 36 66 93
E 36 69 109
E 36 75 96
E 37 44 105
E 37 48 95
E 37 51 103
E 37 63 99
E 37 64 96
E 37 70 104
E 37 77 101
E 38 46 95
E 38 49 96
E 38 50 95
E 38 52 98
E 38 54 102
E 38 55 103
E 38 58 92
E 38 66 98
E 38 76 90
E 38 78 100
E 39 43 97
E 39 45 104
E 39 51 103
E 39 70 102
E 39 72 103
E 39 78 103
E 39 80 95
E 40 48 99
E 40 59 91
E 40 61 100
E 40 65 101
E 40 66 100
E 40 68 104
E 40 70 91
E 40 74 99
E 40 78 100
E 41 43 97
E 41 48 109
E 41 51 92
E 41 58 99
E 41 59 99
E 41 64 101
E 41 66 95
E 41 67 112
E 41 70 103
E 41 72 108
E 41 73 95
E 42 43 100
E 42 45 99
E 42 49 95
E 42 57 100
E 42 64 98
E 42 65 91
E 42 70 95
E 42 75 102
E 42 80 105
E 43 45 103
E 43 51 93
E 43 58 94
E 43 73 97
E 44 45 111
E 44 48 107
E 44 51 106
E 44 59 116
E 44 62 108
E 44 67 98
E 44 69 96
E 44 76 104
E 45 47 103
E 45 53 101
E 45 64 97
E 45 71 99
E 45 77 93
E 45 78 91
E 46 54 95
E 46 60 93
E 46 70 99
E 46 76 93
E 47 48 96
E 47 50 100
E 47 59 100
E 47 62 105
E 47 66 106
E 47 75 103
E 47 79 101
E 48 49 100
E 48 51 92
E 48 52 105
E 48 61 98
E 48 65 103
E 48 69 96
E 48 75 99
E 49 54 107
E 49 58 94
E 49 63 106
E 49 64 91
E 49 68 94
E 50 54 92
E 50 56 97
E 50 61 96
E 50 62 93
E 50 63 95
E 50 65 107
E 50 68 101
E 50 71 101
E 50 78 98
E 50 79 104
E 51 67 95
E 51 68 92
E 51 70 100
E 51 75 104
E 51 76 100
E 52 57 89
E 52 60 98
E 52 62 103
E 52 67 95
E 52 72 102
E 52 74 98
E 53 54 103
E 53 65 105
E 53 66 97
E 53 69 99
E 53 72 99
E 53 75 104
E 54 55 104
E 54 58 101
E 54 59 97
E 54 65 91
E 54 67 99
E 54 80 93
E 55 58 99
E 55 62 95
E 55 73 95
E 55 76 106
E 55 77 94
E 56 59 92
E 56 62 100
E 56 67 106
E 56 69 97
E 56 71 96
E 56 73 96
E 56 75 105
E 56 76 99
E 56 77 102
E 57 59 103
E 57 60 97
E 57 62 96
E 57 67 105
E 57 69 100
E 57 70 100
E 57 77 99
E 57 80 110
E 58 62 107
E 58 68 95
E 58 75 110
E 59 61 97
E 59 62 97
E 59 67 99
E 59 69 105
E 59 78 103
E 60 63 92
E 60 65 100
E 61 68 94
E 61 72 102
E 61 76 100
E 62 65 98
E 62 66 110
E 62 72 100
E 62 76 110
E 63 73 108
E 63 78 93
E 64 70 97
E 65 67 101
E 65 68 99
E 65 72 105
E 65 75 104
E 65 77 97
E 66 67 100
E 66 73 109
E 66 78 103
E 67 71 98
E 67 74 96
E 67 80 100
E 68 73 91
E 68 78 98
E 69 71 100
E 69 72 95
E 69 76 93
E 70 72 98
E 70 76 105
E 70 80 106
E 71 78 96
E 72 74 100
E 72 75 104
E 73 77 101
E 74 76 101
E 74 77 99
E 75 80 98
E 76 77 103
E 77 78 104
E 77 80 101
END

SECTION Terminals
Terminals 8
T 1
T 2
T 3
T 4
T 5
T 6
T 7
T 8
END

EOF
